Optimal - objective value 25046.00000000
      1 x_0_1                    1                       0
     11 x_1_4                    1                       0
     16 x_2_2                    1                       0
     27 x_3_6                    1                       0
     33 x_4_5                    1                       0
     35 x_5_0                    1                       0
     45 x_6_3                    1                       0
     88 y_0_1_1_4                1                    1820
     92 y_0_1_2_2                1                    1566
    102 y_0_1_3_6                1                    1512
    107 y_0_1_4_5                1                    5858
    109 y_0_1_5_0                1                    5840
    117 y_0_1_6_3                1                    2024
    423 y_1_4_2_2                1                     208
    432 y_1_4_3_6                1                     220
    437 y_1_4_4_5                1                     248
    439 y_1_4_5_0                1                    1030
    448 y_1_4_6_3                1                      48
    564 y_2_2_3_6                1                     248
    569 y_2_2_4_5                1                     490
    571 y_2_2_5_0                1                     693
    579 y_2_2_6_3                1                     164
    792 y_3_6_4_5                1                     476
    793 y_3_6_5_0                1                     792
    802 y_3_6_6_3                1                     261
    865 y_4_5_5_0                1                     189
    874 y_4_5_6_3                1                     792
    891 y_5_0_6_3                1                     567
